Maximize
  - 4.7530114262265 edge_0_3_0_0 - 2.3762691445428 edge_0_4_0_0
   - 3.13661751 edge_0_6_0_0 - 3.8726276506302 edge_0_9_0_0
   - 3.8634052803698 edge_0_15_0_0 - 6.197589715405 edge_0_19_0_0
   + 0.1011223701657336 edge_3_4_0_0 - 0.3701453810586008 edge_3_6_0_0
   - 1.122759887109235 edge_3_9_0_0 - 1.688656232570907 edge_3_11_0_0
   - 1.19382628878701 edge_3_15_0_0 + 1.991538055934542 edge_4_3_0_0
   + 0.7815637865431556 edge_4_5_0_0 + 1.702532934087923 edge_4_6_0_0
   + 0.1386429356372652 edge_4_7_0_0 + 0.288825820833967 edge_4_8_0_0
   + 2.27582467946502 edge_4_9_0_0 + 0.9185194488880793 edge_4_11_0_0
   + 0.5753039873150001 edge_4_12_0_0 - 0.1632151712748072 edge_4_14_0_0
   + 0.9086752108098163 edge_4_15_0_0 + 0.2477977416222009 edge_4_18_0_0
   + 0.4153061509812318 edge_4_19_0_0 - 0.1183183732536903 edge_4_20_0_0
   - 0.4555776533106458 edge_4_22_0_0 - 0.1806052427683892 edge_4_23_0_0
   - 0.0748150773372355 edge_4_25_0_0 - 0.0867745895818931 edge_5_7_0_0
   - 0.5081663895515764 edge_5_9_0_0 - 0.08339375213537 edge_6_3_0_0
   + 0.0760854658592224 edge_6_4_0_0 + 1.97036219823006 edge_6_5_0_0
   + 0.0684412232595559 edge_6_7_0_0 + 0.220582533587905 edge_6_8_0_0
   + 0.4159771196318508 edge_6_9_0_0 + 0.6669136589406836 edge_6_11_0_0
   - 0.0288354672653339 edge_6_12_0_0 - 0.1028979117707614 edge_6_14_0_0
   + 0.2768113435447629 edge_6_15_0_0 - 0.998758886025043 edge_6_19_0_0
   - 1.230051074716192 edge_6_22_0_0 - 0.344017756294283 edge_7_6_0_0
   - 0.0605266857630145 edge_8_7_0_0 + 8.8422251264900597e-04 edge_8_11_0_0
   - 1.051813618783844 edge_8_15_0_0 - 0.5742549917046509 edge_9_3_0_0
   - 0.7430893234191273 edge_9_4_0_0 + 0.6696213307091629 edge_9_5_0_0
   - 0.2979384651601493 edge_9_6_0_0 + 3.048072863629331 edge_9_7_0_0
   + 3.163445623925758 edge_9_8_0_0 + 0.411738745170995 edge_9_10_0_0
   + 2.761641398299205 edge_9_11_0_0 + 0.6620417071760304 edge_9_12_0_0
   - 0.2495660654313792 edge_9_14_0_0 + 1.166571119085302 edge_9_15_0_0
   - 0.73703864902009 edge_9_18_0_0 - 0.6042833124165882 edge_9_19_0_0
   - 0.6564940712216975 edge_9_22_0_0 - 2.396262359162642 edge_9_25_0_0
   - 1.479596621567226 edge_11_3_0_0 - 1.38709916774012 edge_11_4_0_0
   - 0.1545475176213469 edge_11_5_0_0 - 0.5946485424343156 edge_11_6_0_0
   + 0.7007015373946507 edge_11_7_0_0 + 0.285353123263764 edge_11_8_0_0
   + 0.1997080865882477 edge_11_9_0_0 + 3.2404392216672 edge_11_10_0_0
   + 0.2161061380584144 edge_11_12_0_0 + 0.1176023340230331 edge_11_14_0_0
   + 0.5570087441059594 edge_11_15_0_0 - 1.236673905636191 edge_11_18_0_0
   - 0.9947942950428119 edge_11_19_0_0 - 1.905078676530608 edge_11_22_0_0
   - 0.6260195329475861 edge_12_11_0_0 - 1.720480581161868 edge_14_4_0_0
   - 0.690007476140732 edge_14_10_0_0 - 1.173209562852437 edge_14_11_0_0
   - 0.4111218564283863 edge_14_12_0_0 - 0.1983960225641741 edge_14_15_0_0
   - 1.966010125730871 edge_14_18_0_0 - 0.8699857033062715 edge_14_19_0_0
   - 2.192398207003995 edge_14_22_0_0 + 0.4353036615506805 edge_15_3_0_0
   + 0.3341796064656883 edge_15_4_0_0 + 0.6003467088184646 edge_15_5_0_0
   + 0.0137249449027607 edge_15_6_0_0 - 0.0866200889400957 edge_15_7_0_0
   + 1.017383847043174 edge_15_9_0_0 + 0.8663629677787564 edge_15_10_0_0
   - 0.1380344409583762 edge_15_11_0_0 + 2.495697923787183 edge_15_12_0_0
   + 2.674172267232743 edge_15_14_0_0 + 0.116430400751923 edge_15_16_0_0
   + 0.3803720096466817 edge_15_17_0_0 + 1.958991670638898 edge_15_18_0_0
   + 2.754981595915127 edge_15_19_0_0 + 0.0275144221296483 edge_15_20_0_0
   - 0.1022254186786909 edge_15_21_0_0 + 1.078522753051155 edge_15_22_0_0
   + 0.0357627334029016 edge_15_23_0_0 + 1.306618656620751 edge_15_25_0_0
   - 0.1270177704811562 edge_16_23_0_0 - 2.655516964724071 edge_18_3_0_0
   - 0.4792808680305445 edge_18_12_0_0 + 0.0624016848102988 edge_18_14_0_0
   + 0.9217223754231224 edge_18_16_0_0 + 0.637164691398396 edge_18_17_0_0
   + 0.1982705751955242 edge_18_19_0_0 - 0.242674595469019 edge_18_20_0_0
   - 0.3637175565330394 edge_18_21_0_0 + 0.9689085753679686 edge_18_22_0_0
   + 1.397767620070109 edge_18_23_0_0 + 1.439389092947573 edge_18_24_0_0
   - 0.2789484640876151 edge_18_25_0_0 - 1.970397175660108 edge_19_3_0_0
   - 1.922726810008099 edge_19_4_0_0 - 1.39980116886596 edge_19_9_0_0
   - 1.971236713778075 edge_19_11_0_0 - 0.0335834053183475 edge_19_12_0_0
   + 0.6339527875187064 edge_19_14_0_0 - 0.0308931814887801 edge_19_15_0_0
   + 3.479472190699751 edge_19_16_0_0 + 3.357450723288445 edge_19_17_0_0
   + 2.544300386381791 edge_19_18_0_0 - 0.5222197298433321 edge_19_20_0_0
   + 0.098228533509802 edge_19_21_0_0 + 1.810481397159725 edge_19_22_0_0
   + 0.0506564394533033 edge_19_23_0_0 + 0.1673381300748744 edge_19_24_0_0
   + 0.6332283757406636 edge_19_25_0_0 + 0.274206953987525 edge_20_21_0_0
   - 0.2487703202613425 edge_20_23_0_0 - 0.0825598402909586 edge_20_25_0_0
   - 1.259946413739745 edge_21_18_0_0 + 0.3066250075184286 edge_21_20_0_0
   - 0.1873601926606926 edge_21_25_0_0 - 2.805633274389115 edge_22_3_0_0
   - 2.044660528296445 edge_22_4_0_0 - 1.706680201539816 edge_22_9_0_0
   - 0.4687851118997519 edge_22_12_0_0 + 0.1504825458298218 edge_22_14_0_0
   - 0.8028170183589063 edge_22_15_0_0 - 0.4774128690306725 edge_22_16_0_0
   - 0.3726004125090185 edge_22_18_0_0 - 0.4099335296543875 edge_22_19_0_0
   + 2.560897132595355 edge_22_20_0_0 + 2.960726111969238 edge_22_21_0_0
   + 0.4012374001039647 edge_22_23_0_0 + 0.2145269780931979 edge_22_24_0_0
   + 2.635638091138876 edge_22_25_0_0 + 0.3771097521443084 edge_23_25_0_0
   - 0.0958100425010054 edge_24_23_0_0 + 0.2525600100185645 edge_25_20_0_0
   - 0.0295057818606495 edge_25_21_0_0 + 0.211512408563437 edge_25_22_0_0
   + 1.699255804056194 edge_25_23_0_0
Subject To
 one_parent_1: = 1
 consume_one_flow_unit_1: = 1
 one_parent_2: = 1
 consume_one_flow_unit_2: = 1
 one_parent_3: edge_0_3_0_0 + edge_4_3_0_0 + edge_6_3_0_0 + edge_9_3_0_0
   + edge_11_3_0_0 + edge_15_3_0_0 + edge_18_3_0_0 + edge_19_3_0_0
   + edge_22_3_0_0 = 1
 consume_one_flow_unit_3: flow_0_3_0_0 - flow_3_4_0_0 - flow_3_6_0_0
   - flow_3_9_0_0 - flow_3_11_0_0 - flow_3_15_0_0 + flow_4_3_0_0
   + flow_6_3_0_0 + flow_9_3_0_0 + flow_11_3_0_0 + flow_15_3_0_0
   + flow_18_3_0_0 + flow_19_3_0_0 + flow_22_3_0_0 = 1
 one_parent_4: edge_0_4_0_0 + edge_3_4_0_0 + edge_6_4_0_0 + edge_9_4_0_0
   + edge_11_4_0_0 + edge_14_4_0_0 + edge_15_4_0_0 + edge_19_4_0_0
   + edge_22_4_0_0 = 1
 consume_one_flow_unit_4: flow_0_4_0_0 + flow_3_4_0_0 - flow_4_3_0_0
   - flow_4_5_0_0 - flow_4_6_0_0 - flow_4_7_0_0 - flow_4_8_0_0
   - flow_4_9_0_0 - flow_4_11_0_0 - flow_4_12_0_0 - flow_4_14_0_0
   - flow_4_15_0_0 - flow_4_18_0_0 - flow_4_19_0_0 - flow_4_20_0_0
   - flow_4_22_0_0 - flow_4_23_0_0 - flow_4_25_0_0 + flow_6_4_0_0
   + flow_9_4_0_0 + flow_11_4_0_0 + flow_14_4_0_0 + flow_15_4_0_0
   + flow_19_4_0_0 + flow_22_4_0_0 = 1
 one_parent_5: edge_4_5_0_0 + edge_6_5_0_0 + edge_9_5_0_0 + edge_11_5_0_0
   + edge_15_5_0_0 = 1
 consume_one_flow_unit_5: flow_4_5_0_0 - flow_5_7_0_0 - flow_5_9_0_0
   + flow_6_5_0_0 + flow_9_5_0_0 + flow_11_5_0_0 + flow_15_5_0_0 = 1
 one_parent_6: edge_0_6_0_0 + edge_3_6_0_0 + edge_4_6_0_0 + edge_7_6_0_0
   + edge_9_6_0_0 + edge_11_6_0_0 + edge_15_6_0_0 = 1
 consume_one_flow_unit_6: flow_0_6_0_0 + flow_3_6_0_0 + flow_4_6_0_0
   - flow_6_3_0_0 - flow_6_4_0_0 - flow_6_5_0_0 - flow_6_7_0_0
   - flow_6_8_0_0 - flow_6_9_0_0 - flow_6_11_0_0 - flow_6_12_0_0
   - flow_6_14_0_0 - flow_6_15_0_0 - flow_6_19_0_0 - flow_6_22_0_0
   + flow_7_6_0_0 + flow_9_6_0_0 + flow_11_6_0_0 + flow_15_6_0_0 = 1
 one_parent_7: edge_4_7_0_0 + edge_5_7_0_0 + edge_6_7_0_0 + edge_8_7_0_0
   + edge_9_7_0_0 + edge_11_7_0_0 + edge_15_7_0_0 = 1
 consume_one_flow_unit_7: flow_4_7_0_0 + flow_5_7_0_0 + flow_6_7_0_0
   - flow_7_6_0_0 + flow_8_7_0_0 + flow_9_7_0_0 + flow_11_7_0_0
   + flow_15_7_0_0 = 1
 one_parent_8: edge_4_8_0_0 + edge_6_8_0_0 + edge_9_8_0_0 + edge_11_8_0_0
   = 1
 consume_one_flow_unit_8: flow_4_8_0_0 + flow_6_8_0_0 - flow_8_7_0_0
   - flow_8_11_0_0 - flow_8_15_0_0 + flow_9_8_0_0 + flow_11_8_0_0 = 1
 one_parent_9: edge_0_9_0_0 + edge_3_9_0_0 + edge_4_9_0_0 + edge_5_9_0_0
   + edge_6_9_0_0 + edge_11_9_0_0 + edge_15_9_0_0 + edge_19_9_0_0
   + edge_22_9_0_0 = 1
 consume_one_flow_unit_9: flow_0_9_0_0 + flow_3_9_0_0 + flow_4_9_0_0
   + flow_5_9_0_0 + flow_6_9_0_0 - flow_9_3_0_0 - flow_9_4_0_0
   - flow_9_5_0_0 - flow_9_6_0_0 - flow_9_7_0_0 - flow_9_8_0_0
   - flow_9_10_0_0 - flow_9_11_0_0 - flow_9_12_0_0 - flow_9_14_0_0
   - flow_9_15_0_0 - flow_9_18_0_0 - flow_9_19_0_0 - flow_9_22_0_0
   - flow_9_25_0_0 + flow_11_9_0_0 + flow_15_9_0_0 + flow_19_9_0_0
   + flow_22_9_0_0 = 1
 one_parent_10: edge_9_10_0_0 + edge_11_10_0_0 + edge_14_10_0_0
   + edge_15_10_0_0 = 1
 consume_one_flow_unit_10: flow_9_10_0_0 + flow_11_10_0_0 + flow_14_10_0_0
   + flow_15_10_0_0 = 1
 one_parent_11: edge_3_11_0_0 + edge_4_11_0_0 + edge_6_11_0_0
   + edge_8_11_0_0 + edge_9_11_0_0 + edge_12_11_0_0 + edge_14_11_0_0
   + edge_15_11_0_0 + edge_19_11_0_0 = 1
 consume_one_flow_unit_11: flow_3_11_0_0 + flow_4_11_0_0 + flow_6_11_0_0
   + flow_8_11_0_0 + flow_9_11_0_0 - flow_11_3_0_0 - flow_11_4_0_0
   - flow_11_5_0_0 - flow_11_6_0_0 - flow_11_7_0_0 - flow_11_8_0_0
   - flow_11_9_0_0 - flow_11_10_0_0 - flow_11_12_0_0 - flow_11_14_0_0
   - flow_11_15_0_0 - flow_11_18_0_0 - flow_11_19_0_0 - flow_11_22_0_0
   + flow_12_11_0_0 + flow_14_11_0_0 + flow_15_11_0_0 + flow_19_11_0_0 = 1
 one_parent_12: edge_4_12_0_0 + edge_6_12_0_0 + edge_9_12_0_0
   + edge_11_12_0_0 + edge_14_12_0_0 + edge_15_12_0_0 + edge_18_12_0_0
   + edge_19_12_0_0 + edge_22_12_0_0 = 1
 consume_one_flow_unit_12: flow_4_12_0_0 + flow_6_12_0_0 + flow_9_12_0_0
   + flow_11_12_0_0 - flow_12_11_0_0 + flow_14_12_0_0 + flow_15_12_0_0
   + flow_18_12_0_0 + flow_19_12_0_0 + flow_22_12_0_0 = 1
 one_parent_13: = 1
 consume_one_flow_unit_13: = 1
 one_parent_14: edge_4_14_0_0 + edge_6_14_0_0 + edge_9_14_0_0
   + edge_11_14_0_0 + edge_15_14_0_0 + edge_18_14_0_0 + edge_19_14_0_0
   + edge_22_14_0_0 = 1
 consume_one_flow_unit_14: flow_4_14_0_0 + flow_6_14_0_0 + flow_9_14_0_0
   + flow_11_14_0_0 - flow_14_4_0_0 - flow_14_10_0_0 - flow_14_11_0_0
   - flow_14_12_0_0 - flow_14_15_0_0 - flow_14_18_0_0 - flow_14_19_0_0
   - flow_14_22_0_0 + flow_15_14_0_0 + flow_18_14_0_0 + flow_19_14_0_0
   + flow_22_14_0_0 = 1
 one_parent_15: edge_0_15_0_0 + edge_3_15_0_0 + edge_4_15_0_0
   + edge_6_15_0_0 + edge_8_15_0_0 + edge_9_15_0_0 + edge_11_15_0_0
   + edge_14_15_0_0 + edge_19_15_0_0 + edge_22_15_0_0 = 1
 consume_one_flow_unit_15: flow_0_15_0_0 + flow_3_15_0_0 + flow_4_15_0_0
   + flow_6_15_0_0 + flow_8_15_0_0 + flow_9_15_0_0 + flow_11_15_0_0
   + flow_14_15_0_0 - flow_15_3_0_0 - flow_15_4_0_0 - flow_15_5_0_0
   - flow_15_6_0_0 - flow_15_7_0_0 - flow_15_9_0_0 - flow_15_10_0_0
   - flow_15_11_0_0 - flow_15_12_0_0 - flow_15_14_0_0 - flow_15_16_0_0
   - flow_15_17_0_0 - flow_15_18_0_0 - flow_15_19_0_0 - flow_15_20_0_0
   - flow_15_21_0_0 - flow_15_22_0_0 - flow_15_23_0_0 - flow_15_25_0_0
   + flow_19_15_0_0 + flow_22_15_0_0 = 1
 one_parent_16: edge_15_16_0_0 + edge_18_16_0_0 + edge_19_16_0_0
   + edge_22_16_0_0 = 1
 consume_one_flow_unit_16: flow_15_16_0_0 - flow_16_23_0_0 + flow_18_16_0_0
   + flow_19_16_0_0 + flow_22_16_0_0 = 1
 one_parent_17: edge_15_17_0_0 + edge_18_17_0_0 + edge_19_17_0_0 = 1
 consume_one_flow_unit_17: flow_15_17_0_0 + flow_18_17_0_0 + flow_19_17_0_0
   = 1
 one_parent_18: edge_4_18_0_0 + edge_9_18_0_0 + edge_11_18_0_0
   + edge_14_18_0_0 + edge_15_18_0_0 + edge_19_18_0_0 + edge_21_18_0_0
   + edge_22_18_0_0 = 1
 consume_one_flow_unit_18: flow_4_18_0_0 + flow_9_18_0_0 + flow_11_18_0_0
   + flow_14_18_0_0 + flow_15_18_0_0 - flow_18_3_0_0 - flow_18_12_0_0
   - flow_18_14_0_0 - flow_18_16_0_0 - flow_18_17_0_0 - flow_18_19_0_0
   - flow_18_20_0_0 - flow_18_21_0_0 - flow_18_22_0_0 - flow_18_23_0_0
   - flow_18_24_0_0 - flow_18_25_0_0 + flow_19_18_0_0 + flow_21_18_0_0
   + flow_22_18_0_0 = 1
 one_parent_19: edge_0_19_0_0 + edge_4_19_0_0 + edge_6_19_0_0
   + edge_9_19_0_0 + edge_11_19_0_0 + edge_14_19_0_0 + edge_15_19_0_0
   + edge_18_19_0_0 + edge_22_19_0_0 = 1
 consume_one_flow_unit_19: flow_0_19_0_0 + flow_4_19_0_0 + flow_6_19_0_0
   + flow_9_19_0_0 + flow_11_19_0_0 + flow_14_19_0_0 + flow_15_19_0_0
   + flow_18_19_0_0 - flow_19_3_0_0 - flow_19_4_0_0 - flow_19_9_0_0
   - flow_19_11_0_0 - flow_19_12_0_0 - flow_19_14_0_0 - flow_19_15_0_0
   - flow_19_16_0_0 - flow_19_17_0_0 - flow_19_18_0_0 - flow_19_20_0_0
   - flow_19_21_0_0 - flow_19_22_0_0 - flow_19_23_0_0 - flow_19_24_0_0
   - flow_19_25_0_0 + flow_22_19_0_0 = 1
 one_parent_20: edge_4_20_0_0 + edge_15_20_0_0 + edge_18_20_0_0
   + edge_19_20_0_0 + edge_21_20_0_0 + edge_22_20_0_0 + edge_25_20_0_0 = 1
 consume_one_flow_unit_20: flow_4_20_0_0 + flow_15_20_0_0 + flow_18_20_0_0
   + flow_19_20_0_0 - flow_20_21_0_0 - flow_20_23_0_0 - flow_20_25_0_0
   + flow_21_20_0_0 + flow_22_20_0_0 + flow_25_20_0_0 = 1
 one_parent_21: edge_15_21_0_0 + edge_18_21_0_0 + edge_19_21_0_0
   + edge_20_21_0_0 + edge_22_21_0_0 + edge_25_21_0_0 = 1
 consume_one_flow_unit_21: flow_15_21_0_0 + flow_18_21_0_0 + flow_19_21_0_0
   + flow_20_21_0_0 - flow_21_18_0_0 - flow_21_20_0_0 - flow_21_25_0_0
   + flow_22_21_0_0 + flow_25_21_0_0 = 1
 one_parent_22: edge_4_22_0_0 + edge_6_22_0_0 + edge_9_22_0_0
   + edge_11_22_0_0 + edge_14_22_0_0 + edge_15_22_0_0 + edge_18_22_0_0
   + edge_19_22_0_0 + edge_25_22_0_0 = 1
 consume_one_flow_unit_22: flow_4_22_0_0 + flow_6_22_0_0 + flow_9_22_0_0
   + flow_11_22_0_0 + flow_14_22_0_0 + flow_15_22_0_0 + flow_18_22_0_0
   + flow_19_22_0_0 - flow_22_3_0_0 - flow_22_4_0_0 - flow_22_9_0_0
   - flow_22_12_0_0 - flow_22_14_0_0 - flow_22_15_0_0 - flow_22_16_0_0
   - flow_22_18_0_0 - flow_22_19_0_0 - flow_22_20_0_0 - flow_22_21_0_0
   - flow_22_23_0_0 - flow_22_24_0_0 - flow_22_25_0_0 + flow_25_22_0_0 = 1
 one_parent_23: edge_4_23_0_0 + edge_15_23_0_0 + edge_16_23_0_0
   + edge_18_23_0_0 + edge_19_23_0_0 + edge_20_23_0_0 + edge_22_23_0_0
   + edge_24_23_0_0 + edge_25_23_0_0 = 1
 consume_one_flow_unit_23: flow_4_23_0_0 + flow_15_23_0_0 + flow_16_23_0_0
   + flow_18_23_0_0 + flow_19_23_0_0 + flow_20_23_0_0 + flow_22_23_0_0
   - flow_23_25_0_0 + flow_24_23_0_0 + flow_25_23_0_0 = 1
 one_parent_24: edge_18_24_0_0 + edge_19_24_0_0 + edge_22_24_0_0 = 1
 consume_one_flow_unit_24: flow_18_24_0_0 + flow_19_24_0_0 + flow_22_24_0_0
   - flow_24_23_0_0 = 1
 one_parent_25: edge_4_25_0_0 + edge_9_25_0_0 + edge_15_25_0_0
   + edge_18_25_0_0 + edge_19_25_0_0 + edge_20_25_0_0 + edge_21_25_0_0
   + edge_22_25_0_0 + edge_23_25_0_0 = 1
 consume_one_flow_unit_25: flow_4_25_0_0 + flow_9_25_0_0 + flow_15_25_0_0
   + flow_18_25_0_0 + flow_19_25_0_0 + flow_20_25_0_0 + flow_21_25_0_0
   + flow_22_25_0_0 + flow_23_25_0_0 - flow_25_20_0_0 - flow_25_21_0_0
   - flow_25_22_0_0 - flow_25_23_0_0 = 1
 one_parent_26: = 1
 consume_one_flow_unit_26: = 1
 root_flow: flow_0_3_0_0 + flow_0_4_0_0 + flow_0_6_0_0 + flow_0_9_0_0
   + flow_0_15_0_0 + flow_0_19_0_0 = 26
 inactive_no_flow_0_3_0_0: flow_0_3_0_0 - 1000 edge_0_3_0_0 <= 0
 inactive_no_flow_0_4_0_0: flow_0_4_0_0 - 1000 edge_0_4_0_0 <= 0
 inactive_no_flow_0_6_0_0: flow_0_6_0_0 - 1000 edge_0_6_0_0 <= 0
 inactive_no_flow_0_9_0_0: flow_0_9_0_0 - 1000 edge_0_9_0_0 <= 0
 inactive_no_flow_0_15_0_0: flow_0_15_0_0 - 1000 edge_0_15_0_0 <= 0
 inactive_no_flow_0_19_0_0: flow_0_19_0_0 - 1000 edge_0_19_0_0 <= 0
 inactive_no_flow_3_4_0_0: flow_3_4_0_0 - 1000 edge_3_4_0_0 <= 0
 inactive_no_flow_3_6_0_0: flow_3_6_0_0 - 1000 edge_3_6_0_0 <= 0
 inactive_no_flow_3_9_0_0: flow_3_9_0_0 - 1000 edge_3_9_0_0 <= 0
 inactive_no_flow_3_11_0_0: flow_3_11_0_0 - 1000 edge_3_11_0_0 <= 0
 inactive_no_flow_3_15_0_0: flow_3_15_0_0 - 1000 edge_3_15_0_0 <= 0
 inactive_no_flow_4_3_0_0: flow_4_3_0_0 - 1000 edge_4_3_0_0 <= 0
 inactive_no_flow_4_5_0_0: flow_4_5_0_0 - 1000 edge_4_5_0_0 <= 0
 inactive_no_flow_4_6_0_0: flow_4_6_0_0 - 1000 edge_4_6_0_0 <= 0
 inactive_no_flow_4_7_0_0: flow_4_7_0_0 - 1000 edge_4_7_0_0 <= 0
 inactive_no_flow_4_8_0_0: flow_4_8_0_0 - 1000 edge_4_8_0_0 <= 0
 inactive_no_flow_4_9_0_0: flow_4_9_0_0 - 1000 edge_4_9_0_0 <= 0
 inactive_no_flow_4_11_0_0: flow_4_11_0_0 - 1000 edge_4_11_0_0 <= 0
 inactive_no_flow_4_12_0_0: flow_4_12_0_0 - 1000 edge_4_12_0_0 <= 0
 inactive_no_flow_4_14_0_0: flow_4_14_0_0 - 1000 edge_4_14_0_0 <= 0
 inactive_no_flow_4_15_0_0: flow_4_15_0_0 - 1000 edge_4_15_0_0 <= 0
 inactive_no_flow_4_18_0_0: flow_4_18_0_0 - 1000 edge_4_18_0_0 <= 0
 inactive_no_flow_4_19_0_0: flow_4_19_0_0 - 1000 edge_4_19_0_0 <= 0
 inactive_no_flow_4_20_0_0: flow_4_20_0_0 - 1000 edge_4_20_0_0 <= 0
 inactive_no_flow_4_22_0_0: flow_4_22_0_0 - 1000 edge_4_22_0_0 <= 0
 inactive_no_flow_4_23_0_0: flow_4_23_0_0 - 1000 edge_4_23_0_0 <= 0
 inactive_no_flow_4_25_0_0: flow_4_25_0_0 - 1000 edge_4_25_0_0 <= 0
 inactive_no_flow_5_7_0_0: flow_5_7_0_0 - 1000 edge_5_7_0_0 <= 0
 inactive_no_flow_5_9_0_0: flow_5_9_0_0 - 1000 edge_5_9_0_0 <= 0
 inactive_no_flow_6_3_0_0: flow_6_3_0_0 - 1000 edge_6_3_0_0 <= 0
 inactive_no_flow_6_4_0_0: flow_6_4_0_0 - 1000 edge_6_4_0_0 <= 0
 inactive_no_flow_6_5_0_0: flow_6_5_0_0 - 1000 edge_6_5_0_0 <= 0
 inactive_no_flow_6_7_0_0: flow_6_7_0_0 - 1000 edge_6_7_0_0 <= 0
 inactive_no_flow_6_8_0_0: flow_6_8_0_0 - 1000 edge_6_8_0_0 <= 0
 inactive_no_flow_6_9_0_0: flow_6_9_0_0 - 1000 edge_6_9_0_0 <= 0
 inactive_no_flow_6_11_0_0: flow_6_11_0_0 - 1000 edge_6_11_0_0 <= 0
 inactive_no_flow_6_12_0_0: flow_6_12_0_0 - 1000 edge_6_12_0_0 <= 0
 inactive_no_flow_6_14_0_0: flow_6_14_0_0 - 1000 edge_6_14_0_0 <= 0
 inactive_no_flow_6_15_0_0: flow_6_15_0_0 - 1000 edge_6_15_0_0 <= 0
 inactive_no_flow_6_19_0_0: flow_6_19_0_0 - 1000 edge_6_19_0_0 <= 0
 inactive_no_flow_6_22_0_0: flow_6_22_0_0 - 1000 edge_6_22_0_0 <= 0
 inactive_no_flow_7_6_0_0: flow_7_6_0_0 - 1000 edge_7_6_0_0 <= 0
 inactive_no_flow_8_7_0_0: flow_8_7_0_0 - 1000 edge_8_7_0_0 <= 0
 inactive_no_flow_8_11_0_0: flow_8_11_0_0 - 1000 edge_8_11_0_0 <= 0
 inactive_no_flow_8_15_0_0: flow_8_15_0_0 - 1000 edge_8_15_0_0 <= 0
 inactive_no_flow_9_3_0_0: flow_9_3_0_0 - 1000 edge_9_3_0_0 <= 0
 inactive_no_flow_9_4_0_0: flow_9_4_0_0 - 1000 edge_9_4_0_0 <= 0
 inactive_no_flow_9_5_0_0: flow_9_5_0_0 - 1000 edge_9_5_0_0 <= 0
 inactive_no_flow_9_6_0_0: flow_9_6_0_0 - 1000 edge_9_6_0_0 <= 0
 inactive_no_flow_9_7_0_0: flow_9_7_0_0 - 1000 edge_9_7_0_0 <= 0
 inactive_no_flow_9_8_0_0: flow_9_8_0_0 - 1000 edge_9_8_0_0 <= 0
 inactive_no_flow_9_10_0_0: flow_9_10_0_0 - 1000 edge_9_10_0_0 <= 0
 inactive_no_flow_9_11_0_0: flow_9_11_0_0 - 1000 edge_9_11_0_0 <= 0
 inactive_no_flow_9_12_0_0: flow_9_12_0_0 - 1000 edge_9_12_0_0 <= 0
 inactive_no_flow_9_14_0_0: flow_9_14_0_0 - 1000 edge_9_14_0_0 <= 0
 inactive_no_flow_9_15_0_0: flow_9_15_0_0 - 1000 edge_9_15_0_0 <= 0
 inactive_no_flow_9_18_0_0: flow_9_18_0_0 - 1000 edge_9_18_0_0 <= 0
 inactive_no_flow_9_19_0_0: flow_9_19_0_0 - 1000 edge_9_19_0_0 <= 0
 inactive_no_flow_9_22_0_0: flow_9_22_0_0 - 1000 edge_9_22_0_0 <= 0
 inactive_no_flow_9_25_0_0: flow_9_25_0_0 - 1000 edge_9_25_0_0 <= 0
 inactive_no_flow_11_3_0_0: flow_11_3_0_0 - 1000 edge_11_3_0_0 <= 0
 inactive_no_flow_11_4_0_0: flow_11_4_0_0 - 1000 edge_11_4_0_0 <= 0
 inactive_no_flow_11_5_0_0: flow_11_5_0_0 - 1000 edge_11_5_0_0 <= 0
 inactive_no_flow_11_6_0_0: flow_11_6_0_0 - 1000 edge_11_6_0_0 <= 0
 inactive_no_flow_11_7_0_0: flow_11_7_0_0 - 1000 edge_11_7_0_0 <= 0
 inactive_no_flow_11_8_0_0: flow_11_8_0_0 - 1000 edge_11_8_0_0 <= 0
 inactive_no_flow_11_9_0_0: flow_11_9_0_0 - 1000 edge_11_9_0_0 <= 0
 inactive_no_flow_11_10_0_0: flow_11_10_0_0 - 1000 edge_11_10_0_0 <= 0
 inactive_no_flow_11_12_0_0: flow_11_12_0_0 - 1000 edge_11_12_0_0 <= 0
 inactive_no_flow_11_14_0_0: flow_11_14_0_0 - 1000 edge_11_14_0_0 <= 0
 inactive_no_flow_11_15_0_0: flow_11_15_0_0 - 1000 edge_11_15_0_0 <= 0
 inactive_no_flow_11_18_0_0: flow_11_18_0_0 - 1000 edge_11_18_0_0 <= 0
 inactive_no_flow_11_19_0_0: flow_11_19_0_0 - 1000 edge_11_19_0_0 <= 0
 inactive_no_flow_11_22_0_0: flow_11_22_0_0 - 1000 edge_11_22_0_0 <= 0
 inactive_no_flow_12_11_0_0: flow_12_11_0_0 - 1000 edge_12_11_0_0 <= 0
 inactive_no_flow_14_4_0_0: flow_14_4_0_0 - 1000 edge_14_4_0_0 <= 0
 inactive_no_flow_14_10_0_0: flow_14_10_0_0 - 1000 edge_14_10_0_0 <= 0
 inactive_no_flow_14_11_0_0: flow_14_11_0_0 - 1000 edge_14_11_0_0 <= 0
 inactive_no_flow_14_12_0_0: flow_14_12_0_0 - 1000 edge_14_12_0_0 <= 0
 inactive_no_flow_14_15_0_0: flow_14_15_0_0 - 1000 edge_14_15_0_0 <= 0
 inactive_no_flow_14_18_0_0: flow_14_18_0_0 - 1000 edge_14_18_0_0 <= 0
 inactive_no_flow_14_19_0_0: flow_14_19_0_0 - 1000 edge_14_19_0_0 <= 0
 inactive_no_flow_14_22_0_0: flow_14_22_0_0 - 1000 edge_14_22_0_0 <= 0
 inactive_no_flow_15_3_0_0: flow_15_3_0_0 - 1000 edge_15_3_0_0 <= 0
 inactive_no_flow_15_4_0_0: flow_15_4_0_0 - 1000 edge_15_4_0_0 <= 0
 inactive_no_flow_15_5_0_0: flow_15_5_0_0 - 1000 edge_15_5_0_0 <= 0
 inactive_no_flow_15_6_0_0: flow_15_6_0_0 - 1000 edge_15_6_0_0 <= 0
 inactive_no_flow_15_7_0_0: flow_15_7_0_0 - 1000 edge_15_7_0_0 <= 0
 inactive_no_flow_15_9_0_0: flow_15_9_0_0 - 1000 edge_15_9_0_0 <= 0
 inactive_no_flow_15_10_0_0: flow_15_10_0_0 - 1000 edge_15_10_0_0 <= 0
 inactive_no_flow_15_11_0_0: flow_15_11_0_0 - 1000 edge_15_11_0_0 <= 0
 inactive_no_flow_15_12_0_0: flow_15_12_0_0 - 1000 edge_15_12_0_0 <= 0
 inactive_no_flow_15_14_0_0: flow_15_14_0_0 - 1000 edge_15_14_0_0 <= 0
 inactive_no_flow_15_16_0_0: flow_15_16_0_0 - 1000 edge_15_16_0_0 <= 0
 inactive_no_flow_15_17_0_0: flow_15_17_0_0 - 1000 edge_15_17_0_0 <= 0
 inactive_no_flow_15_18_0_0: flow_15_18_0_0 - 1000 edge_15_18_0_0 <= 0
 inactive_no_flow_15_19_0_0: flow_15_19_0_0 - 1000 edge_15_19_0_0 <= 0
 inactive_no_flow_15_20_0_0: flow_15_20_0_0 - 1000 edge_15_20_0_0 <= 0
 inactive_no_flow_15_21_0_0: flow_15_21_0_0 - 1000 edge_15_21_0_0 <= 0
 inactive_no_flow_15_22_0_0: flow_15_22_0_0 - 1000 edge_15_22_0_0 <= 0
 inactive_no_flow_15_23_0_0: flow_15_23_0_0 - 1000 edge_15_23_0_0 <= 0
 inactive_no_flow_15_25_0_0: flow_15_25_0_0 - 1000 edge_15_25_0_0 <= 0
 inactive_no_flow_16_23_0_0: flow_16_23_0_0 - 1000 edge_16_23_0_0 <= 0
 inactive_no_flow_18_3_0_0: flow_18_3_0_0 - 1000 edge_18_3_0_0 <= 0
 inactive_no_flow_18_12_0_0: flow_18_12_0_0 - 1000 edge_18_12_0_0 <= 0
 inactive_no_flow_18_14_0_0: flow_18_14_0_0 - 1000 edge_18_14_0_0 <= 0
 inactive_no_flow_18_16_0_0: flow_18_16_0_0 - 1000 edge_18_16_0_0 <= 0
 inactive_no_flow_18_17_0_0: flow_18_17_0_0 - 1000 edge_18_17_0_0 <= 0
 inactive_no_flow_18_19_0_0: flow_18_19_0_0 - 1000 edge_18_19_0_0 <= 0
 inactive_no_flow_18_20_0_0: flow_18_20_0_0 - 1000 edge_18_20_0_0 <= 0
 inactive_no_flow_18_21_0_0: flow_18_21_0_0 - 1000 edge_18_21_0_0 <= 0
 inactive_no_flow_18_22_0_0: flow_18_22_0_0 - 1000 edge_18_22_0_0 <= 0
 inactive_no_flow_18_23_0_0: flow_18_23_0_0 - 1000 edge_18_23_0_0 <= 0
 inactive_no_flow_18_24_0_0: flow_18_24_0_0 - 1000 edge_18_24_0_0 <= 0
 inactive_no_flow_18_25_0_0: flow_18_25_0_0 - 1000 edge_18_25_0_0 <= 0
 inactive_no_flow_19_3_0_0: flow_19_3_0_0 - 1000 edge_19_3_0_0 <= 0
 inactive_no_flow_19_4_0_0: flow_19_4_0_0 - 1000 edge_19_4_0_0 <= 0
 inactive_no_flow_19_9_0_0: flow_19_9_0_0 - 1000 edge_19_9_0_0 <= 0
 inactive_no_flow_19_11_0_0: flow_19_11_0_0 - 1000 edge_19_11_0_0 <= 0
 inactive_no_flow_19_12_0_0: flow_19_12_0_0 - 1000 edge_19_12_0_0 <= 0
 inactive_no_flow_19_14_0_0: flow_19_14_0_0 - 1000 edge_19_14_0_0 <= 0
 inactive_no_flow_19_15_0_0: flow_19_15_0_0 - 1000 edge_19_15_0_0 <= 0
 inactive_no_flow_19_16_0_0: flow_19_16_0_0 - 1000 edge_19_16_0_0 <= 0
 inactive_no_flow_19_17_0_0: flow_19_17_0_0 - 1000 edge_19_17_0_0 <= 0
 inactive_no_flow_19_18_0_0: flow_19_18_0_0 - 1000 edge_19_18_0_0 <= 0
 inactive_no_flow_19_20_0_0: flow_19_20_0_0 - 1000 edge_19_20_0_0 <= 0
 inactive_no_flow_19_21_0_0: flow_19_21_0_0 - 1000 edge_19_21_0_0 <= 0
 inactive_no_flow_19_22_0_0: flow_19_22_0_0 - 1000 edge_19_22_0_0 <= 0
 inactive_no_flow_19_23_0_0: flow_19_23_0_0 - 1000 edge_19_23_0_0 <= 0
 inactive_no_flow_19_24_0_0: flow_19_24_0_0 - 1000 edge_19_24_0_0 <= 0
 inactive_no_flow_19_25_0_0: flow_19_25_0_0 - 1000 edge_19_25_0_0 <= 0
 inactive_no_flow_20_21_0_0: flow_20_21_0_0 - 1000 edge_20_21_0_0 <= 0
 inactive_no_flow_20_23_0_0: flow_20_23_0_0 - 1000 edge_20_23_0_0 <= 0
 inactive_no_flow_20_25_0_0: flow_20_25_0_0 - 1000 edge_20_25_0_0 <= 0
 inactive_no_flow_21_18_0_0: flow_21_18_0_0 - 1000 edge_21_18_0_0 <= 0
 inactive_no_flow_21_20_0_0: flow_21_20_0_0 - 1000 edge_21_20_0_0 <= 0
 inactive_no_flow_21_25_0_0: flow_21_25_0_0 - 1000 edge_21_25_0_0 <= 0
 inactive_no_flow_22_3_0_0: flow_22_3_0_0 - 1000 edge_22_3_0_0 <= 0
 inactive_no_flow_22_4_0_0: flow_22_4_0_0 - 1000 edge_22_4_0_0 <= 0
 inactive_no_flow_22_9_0_0: flow_22_9_0_0 - 1000 edge_22_9_0_0 <= 0
 inactive_no_flow_22_12_0_0: flow_22_12_0_0 - 1000 edge_22_12_0_0 <= 0
 inactive_no_flow_22_14_0_0: flow_22_14_0_0 - 1000 edge_22_14_0_0 <= 0
 inactive_no_flow_22_15_0_0: flow_22_15_0_0 - 1000 edge_22_15_0_0 <= 0
 inactive_no_flow_22_16_0_0: flow_22_16_0_0 - 1000 edge_22_16_0_0 <= 0
 inactive_no_flow_22_18_0_0: flow_22_18_0_0 - 1000 edge_22_18_0_0 <= 0
 inactive_no_flow_22_19_0_0: flow_22_19_0_0 - 1000 edge_22_19_0_0 <= 0
 inactive_no_flow_22_20_0_0: flow_22_20_0_0 - 1000 edge_22_20_0_0 <= 0
 inactive_no_flow_22_21_0_0: flow_22_21_0_0 - 1000 edge_22_21_0_0 <= 0
 inactive_no_flow_22_23_0_0: flow_22_23_0_0 - 1000 edge_22_23_0_0 <= 0
 inactive_no_flow_22_24_0_0: flow_22_24_0_0 - 1000 edge_22_24_0_0 <= 0
 inactive_no_flow_22_25_0_0: flow_22_25_0_0 - 1000 edge_22_25_0_0 <= 0
 inactive_no_flow_23_25_0_0: flow_23_25_0_0 - 1000 edge_23_25_0_0 <= 0
 inactive_no_flow_24_23_0_0: flow_24_23_0_0 - 1000 edge_24_23_0_0 <= 0
 inactive_no_flow_25_20_0_0: flow_25_20_0_0 - 1000 edge_25_20_0_0 <= 0
 inactive_no_flow_25_21_0_0: flow_25_21_0_0 - 1000 edge_25_21_0_0 <= 0
 inactive_no_flow_25_22_0_0: flow_25_22_0_0 - 1000 edge_25_22_0_0 <= 0
 inactive_no_flow_25_23_0_0: flow_25_23_0_0 - 1000 edge_25_23_0_0 <= 0
Bounds
Binaries
 edge_0_3_0_0 edge_0_4_0_0 edge_0_6_0_0 edge_0_9_0_0 edge_0_15_0_0
 edge_0_19_0_0 edge_3_4_0_0 edge_3_6_0_0 edge_3_9_0_0 edge_3_11_0_0
 edge_3_15_0_0 edge_4_3_0_0 edge_4_5_0_0 edge_4_6_0_0 edge_4_7_0_0
 edge_4_8_0_0 edge_4_9_0_0 edge_4_11_0_0 edge_4_12_0_0 edge_4_14_0_0
 edge_4_15_0_0 edge_4_18_0_0 edge_4_19_0_0 edge_4_20_0_0 edge_4_22_0_0
 edge_4_23_0_0 edge_4_25_0_0 edge_5_7_0_0 edge_5_9_0_0 edge_6_3_0_0
 edge_6_4_0_0 edge_6_5_0_0 edge_6_7_0_0 edge_6_8_0_0 edge_6_9_0_0
 edge_6_11_0_0 edge_6_12_0_0 edge_6_14_0_0 edge_6_15_0_0 edge_6_19_0_0
 edge_6_22_0_0 edge_7_6_0_0 edge_8_7_0_0 edge_8_11_0_0 edge_8_15_0_0
 edge_9_3_0_0 edge_9_4_0_0 edge_9_5_0_0 edge_9_6_0_0 edge_9_7_0_0
 edge_9_8_0_0 edge_9_10_0_0 edge_9_11_0_0 edge_9_12_0_0 edge_9_14_0_0
 edge_9_15_0_0 edge_9_18_0_0 edge_9_19_0_0 edge_9_22_0_0 edge_9_25_0_0
 edge_11_3_0_0 edge_11_4_0_0 edge_11_5_0_0 edge_11_6_0_0 edge_11_7_0_0
 edge_11_8_0_0 edge_11_9_0_0 edge_11_10_0_0 edge_11_12_0_0 edge_11_14_0_0
 edge_11_15_0_0 edge_11_18_0_0 edge_11_19_0_0 edge_11_22_0_0 edge_12_11_0_0
 edge_14_4_0_0 edge_14_10_0_0 edge_14_11_0_0 edge_14_12_0_0 edge_14_15_0_0
 edge_14_18_0_0 edge_14_19_0_0 edge_14_22_0_0 edge_15_3_0_0 edge_15_4_0_0
 edge_15_5_0_0 edge_15_6_0_0 edge_15_7_0_0 edge_15_9_0_0 edge_15_10_0_0
 edge_15_11_0_0 edge_15_12_0_0 edge_15_14_0_0 edge_15_16_0_0 edge_15_17_0_0
 edge_15_18_0_0 edge_15_19_0_0 edge_15_20_0_0 edge_15_21_0_0 edge_15_22_0_0
 edge_15_23_0_0 edge_15_25_0_0 edge_16_23_0_0 edge_18_3_0_0 edge_18_12_0_0
 edge_18_14_0_0 edge_18_16_0_0 edge_18_17_0_0 edge_18_19_0_0 edge_18_20_0_0
 edge_18_21_0_0 edge_18_22_0_0 edge_18_23_0_0 edge_18_24_0_0 edge_18_25_0_0
 edge_19_3_0_0 edge_19_4_0_0 edge_19_9_0_0 edge_19_11_0_0 edge_19_12_0_0
 edge_19_14_0_0 edge_19_15_0_0 edge_19_16_0_0 edge_19_17_0_0 edge_19_18_0_0
 edge_19_20_0_0 edge_19_21_0_0 edge_19_22_0_0 edge_19_23_0_0 edge_19_24_0_0
 edge_19_25_0_0 edge_20_21_0_0 edge_20_23_0_0 edge_20_25_0_0 edge_21_18_0_0
 edge_21_20_0_0 edge_21_25_0_0 edge_22_3_0_0 edge_22_4_0_0 edge_22_9_0_0
 edge_22_12_0_0 edge_22_14_0_0 edge_22_15_0_0 edge_22_16_0_0 edge_22_18_0_0
 edge_22_19_0_0 edge_22_20_0_0 edge_22_21_0_0 edge_22_23_0_0 edge_22_24_0_0
 edge_22_25_0_0 edge_23_25_0_0 edge_24_23_0_0 edge_25_20_0_0 edge_25_21_0_0
 edge_25_22_0_0 edge_25_23_0_0
End
